50
120
96
96
91
90
89
86
86
84
83
83
82
82
82
82
79
75
73
72
71
69
68
67
67
66
65
63
62
61
59
59
59
59
58
56
56
55
54
53
50
45
41
39
35
33
29
25
24
21
20
20
